14
0 8 66 94 84 41 51 2 73 73 24 39 23 93 
8 0 52 18 22 40 60 33 22 9 66 63 19 69 
66 52 0 90 4 76 52 89 44 93 1 84 1 59 
94 18 90 0 30 44 36 61 68 95 63 76 50 24 
84 22 4 30 0 29 39 65 76 67 53 18 17 48 
41 40 76 44 29 0 68 51 26 94 21 76 65 34 
51 60 52 36 39 68 0 41 43 5 3 60 24 47 
2 33 89 61 65 51 41 0 99 55 89 30 90 99 
73 22 44 68 76 26 43 99 0 94 59 48 84 28 
73 9 93 95 67 94 5 55 94 0 39 79 21 23 
24 66 1 63 53 21 3 89 59 39 0 22 46 10 
39 63 84 76 18 76 60 30 48 79 22 0 80 93 
23 19 1 50 17 65 24 90 84 21 46 80 0 92 
93 69 59 24 48 34 47 99 28 23 10 93 92 0 
